files/upTests/_functions/setOfFuncTupleSetFromSet/0001.eprime.solution
language ESSENCE' 1.0
$ minion Nodes: 1
$ minion TotalTime: 0.002458
$ Savile Row TotalTime: 0.527
letting fs_Explicit_AsReln_RelationAsSet_ExplicitVarSize_tuple2_tuple2_tuple2 be 
    [
        [4, 4, 4, 4;int(1..4)];int(1..1)
    ]

letting fs_Explicit_AsReln_RelationAsSet_ExplicitVarSize_tuple2_tuple2_tuple1 be 
    [
        [1, 1, 1, 1;int(1..4)];int(1..1)
    ]

letting fs_Explicit_AsReln_RelationAsSet_ExplicitVarSize_tuple2_tuple1_Explicit be 
[
     [
          [1, 2;int(1..2)], 
          [1, 2;int(1..2)], 
          [1, 2;int(1..2)], 
          [1, 2;int(1..2)]
          ;int(1..4)
     ]
     ;int(1..1)
]

letting fs_Explicit_AsReln_RelationAsSet_ExplicitVarSize_tuple1 be 
    [
        [0, 0, 0, 1;int(1..4)];int(1..1)
    ]
